c nIsolatedPIs 0
c maxPI 16
p cnf 48 97
c gate 17 -4 12 0
-4 -17 0
12 -17 0
4 -12 17 0
c gate 18 4 -12 0
4 -18 0
-12 -18 0
-4 12 18 0
c gate 19 -3 11 0
-3 -19 0
11 -19 0
3 -11 19 0
c gate 20 3 -11 0
3 -20 0
-11 -20 0
-3 11 20 0
c gate 21 -2 10 0
-2 -21 0
10 -21 0
2 -10 21 0
c gate 22 2 -10 0
2 -22 0
-10 -22 0
-2 10 22 0
c gate 23 1 -9 0
1 -23 0
-9 -23 0
-1 9 23 0
c gate 24 -22 -23 0
-22 -24 0
-23 -24 0
22 23 24 0
c gate 25 -21 -24 0
-21 -25 0
-24 -25 0
21 24 25 0
c gate 26 -20 -25 0
-20 -26 0
-25 -26 0
20 25 26 0
c gate 27 -19 -26 0
-19 -27 0
-26 -27 0
19 26 27 0
c gate 28 -18 -27 0
-18 -28 0
-27 -28 0
18 27 28 0
c gate 29 -17 -28 0
-17 -29 0
-28 -29 0
17 28 29 0
c gate 30 8 -16 0
8 -30 0
-16 -30 0
-8 16 30 0
c gate 31 7 -15 0
7 -31 0
-15 -31 0
-7 15 31 0
c gate 32 -6 14 0
-6 -32 0
14 -32 0
6 -14 32 0
c gate 33 6 -14 0
6 -33 0
-14 -33 0
-6 14 33 0
c gate 34 5 -13 0
5 -34 0
-13 -34 0
-5 13 34 0
c gate 35 -33 -34 0
-33 -35 0
-34 -35 0
33 34 35 0
c gate 36 -32 -35 0
-32 -36 0
-35 -36 0
32 35 36 0
c gate 37 -31 -36 0
-31 -37 0
-36 -37 0
31 36 37 0
c gate 38 -8 16 0
-8 -38 0
16 -38 0
8 -16 38 0
c gate 39 -7 15 0
-7 -39 0
15 -39 0
7 -15 39 0
c gate 40 -38 -39 0
-38 -40 0
-39 -40 0
38 39 40 0
c gate 41 -37 40 0
-37 -41 0
40 -41 0
37 -40 41 0
c gate 42 -30 -41 0
-30 -42 0
-41 -42 0
30 41 42 0
c gate 43 -5 13 0
-5 -43 0
13 -43 0
5 -13 43 0
c gate 44 -32 -43 0
-32 -44 0
-43 -44 0
32 43 44 0
c gate 45 35 44 0
35 -45 0
44 -45 0
-35 -44 45 0
c gate 46 40 45 0
40 -46 0
45 -46 0
-40 -45 46 0
c gate 47 42 46 0
42 -47 0
46 -47 0
-42 -46 47 0
c gate 48 29 47 0
29 -48 0
47 -48 0
-29 -47 48 0
c PO
48 0
